(set-info :status unknown)
(declare-fun TMP_ARR_64_8_3 () (Array (_ BitVec 64) (_ BitVec 8)))
(declare-fun TMP_ARR_64_8_2 () (Array (_ BitVec 64) (_ BitVec 8)))
(declare-fun %rdi_2_INIT () (_ BitVec 64))
(declare-fun %rax_2_INIT () (_ BitVec 64))
(declare-fun %ymm15_2_FINAL () (_ BitVec 256))
(declare-fun %ymm15_2_INIT () (_ BitVec 256))
(declare-fun %ymm14_2_FINAL () (_ BitVec 256))
(declare-fun %ymm14_2_INIT () (_ BitVec 256))
(declare-fun %ymm13_2_FINAL () (_ BitVec 256))
(declare-fun %ymm13_2_INIT () (_ BitVec 256))
(declare-fun %ymm12_2_FINAL () (_ BitVec 256))
(declare-fun %ymm12_2_INIT () (_ BitVec 256))
(declare-fun %ymm11_2_FINAL () (_ BitVec 256))
(declare-fun %ymm11_2_INIT () (_ BitVec 256))
(declare-fun %ymm10_2_FINAL () (_ BitVec 256))
(declare-fun %ymm10_2_INIT () (_ BitVec 256))
(declare-fun %ymm9_2_FINAL () (_ BitVec 256))
(declare-fun %ymm9_2_INIT () (_ BitVec 256))
(declare-fun %ymm8_2_FINAL () (_ BitVec 256))
(declare-fun %ymm8_2_INIT () (_ BitVec 256))
(declare-fun %ymm7_2_FINAL () (_ BitVec 256))
(declare-fun %ymm7_2_INIT () (_ BitVec 256))
(declare-fun %ymm6_2_FINAL () (_ BitVec 256))
(declare-fun %ymm6_2_INIT () (_ BitVec 256))
(declare-fun %ymm5_2_FINAL () (_ BitVec 256))
(declare-fun %ymm5_2_INIT () (_ BitVec 256))
(declare-fun %ymm4_2_FINAL () (_ BitVec 256))
(declare-fun %ymm4_2_INIT () (_ BitVec 256))
(declare-fun %ymm3_2_FINAL () (_ BitVec 256))
(declare-fun %ymm3_2_INIT () (_ BitVec 256))
(declare-fun %ymm2_2_FINAL () (_ BitVec 256))
(declare-fun %ymm2_2_INIT () (_ BitVec 256))
(declare-fun %ymm1_2_FINAL () (_ BitVec 256))
(declare-fun %ymm1_2_INIT () (_ BitVec 256))
(declare-fun %ymm0_2_FINAL () (_ BitVec 256))
(declare-fun %ymm0_2_INIT () (_ BitVec 256))
(declare-fun %r15_2_FINAL () (_ BitVec 64))
(declare-fun %r15_2_INIT () (_ BitVec 64))
(declare-fun %r14_2_FINAL () (_ BitVec 64))
(declare-fun %r14_2_INIT () (_ BitVec 64))
(declare-fun %r13_2_FINAL () (_ BitVec 64))
(declare-fun %r13_2_INIT () (_ BitVec 64))
(declare-fun %r12_2_FINAL () (_ BitVec 64))
(declare-fun %r12_2_INIT () (_ BitVec 64))
(declare-fun %r11_2_FINAL () (_ BitVec 64))
(declare-fun %r11_2_INIT () (_ BitVec 64))
(declare-fun %r10_2_FINAL () (_ BitVec 64))
(declare-fun %r10_2_INIT () (_ BitVec 64))
(declare-fun %r9_2_FINAL () (_ BitVec 64))
(declare-fun %r9_2_INIT () (_ BitVec 64))
(declare-fun %r8_2_FINAL () (_ BitVec 64))
(declare-fun %r8_2_INIT () (_ BitVec 64))
(declare-fun %rdi_2_FINAL () (_ BitVec 64))
(declare-fun %rsi_2_FINAL () (_ BitVec 64))
(declare-fun %rsi_2_INIT () (_ BitVec 64))
(declare-fun %rbp_2_FINAL () (_ BitVec 64))
(declare-fun %rbp_2_INIT () (_ BitVec 64))
(declare-fun %rsp_2_FINAL () (_ BitVec 64))
(declare-fun %rsp_2_INIT () (_ BitVec 64))
(declare-fun %rbx_2_FINAL () (_ BitVec 64))
(declare-fun %rbx_2_INIT () (_ BitVec 64))
(declare-fun %rdx_2_FINAL () (_ BitVec 64))
(declare-fun %rdx_2_INIT () (_ BitVec 64))
(declare-fun %rcx_2_FINAL () (_ BitVec 64))
(declare-fun %rcx_2_INIT () (_ BitVec 64))
(declare-fun %rax_2_FINAL () (_ BitVec 64))
(declare-fun %ymm15_1_FINAL () (_ BitVec 256))
(declare-fun %ymm15_1_INIT () (_ BitVec 256))
(declare-fun %ymm14_1_FINAL () (_ BitVec 256))
(declare-fun %ymm14_1_INIT () (_ BitVec 256))
(declare-fun %ymm13_1_FINAL () (_ BitVec 256))
(declare-fun %ymm13_1_INIT () (_ BitVec 256))
(declare-fun %ymm12_1_FINAL () (_ BitVec 256))
(declare-fun %ymm12_1_INIT () (_ BitVec 256))
(declare-fun %ymm11_1_FINAL () (_ BitVec 256))
(declare-fun %ymm11_1_INIT () (_ BitVec 256))
(declare-fun %ymm10_1_FINAL () (_ BitVec 256))
(declare-fun %ymm10_1_INIT () (_ BitVec 256))
(declare-fun %ymm9_1_FINAL () (_ BitVec 256))
(declare-fun %ymm9_1_INIT () (_ BitVec 256))
(declare-fun %ymm8_1_FINAL () (_ BitVec 256))
(declare-fun %ymm8_1_INIT () (_ BitVec 256))
(declare-fun %ymm7_1_FINAL () (_ BitVec 256))
(declare-fun %ymm7_1_INIT () (_ BitVec 256))
(declare-fun %ymm6_1_FINAL () (_ BitVec 256))
(declare-fun %ymm6_1_INIT () (_ BitVec 256))
(declare-fun %ymm5_1_FINAL () (_ BitVec 256))
(declare-fun %ymm5_1_INIT () (_ BitVec 256))
(declare-fun %ymm4_1_FINAL () (_ BitVec 256))
(declare-fun %ymm4_1_INIT () (_ BitVec 256))
(declare-fun %ymm3_1_FINAL () (_ BitVec 256))
(declare-fun %ymm3_1_INIT () (_ BitVec 256))
(declare-fun %ymm2_1_FINAL () (_ BitVec 256))
(declare-fun %ymm2_1_INIT () (_ BitVec 256))
(declare-fun %ymm1_1_FINAL () (_ BitVec 256))
(declare-fun %ymm1_1_INIT () (_ BitVec 256))
(declare-fun %ymm0_1_FINAL () (_ BitVec 256))
(declare-fun %ymm0_1_INIT () (_ BitVec 256))
(declare-fun %r15_1_FINAL () (_ BitVec 64))
(declare-fun %r15_1_INIT () (_ BitVec 64))
(declare-fun %r14_1_FINAL () (_ BitVec 64))
(declare-fun %r14_1_INIT () (_ BitVec 64))
(declare-fun %r13_1_FINAL () (_ BitVec 64))
(declare-fun %r13_1_INIT () (_ BitVec 64))
(declare-fun %r12_1_FINAL () (_ BitVec 64))
(declare-fun %r12_1_INIT () (_ BitVec 64))
(declare-fun %r11_1_FINAL () (_ BitVec 64))
(declare-fun %r11_1_INIT () (_ BitVec 64))
(declare-fun %r10_1_FINAL () (_ BitVec 64))
(declare-fun %r10_1_INIT () (_ BitVec 64))
(declare-fun %r9_1_FINAL () (_ BitVec 64))
(declare-fun %r9_1_INIT () (_ BitVec 64))
(declare-fun %r8_1_FINAL () (_ BitVec 64))
(declare-fun %r8_1_INIT () (_ BitVec 64))
(declare-fun %rdi_1_FINAL () (_ BitVec 64))
(declare-fun %rdi_1_INIT () (_ BitVec 64))
(declare-fun %rsi_1_FINAL () (_ BitVec 64))
(declare-fun %rsi_1_INIT () (_ BitVec 64))
(declare-fun %rbp_1_FINAL () (_ BitVec 64))
(declare-fun %rbp_1_INIT () (_ BitVec 64))
(declare-fun %rsp_1_FINAL () (_ BitVec 64))
(declare-fun %rsp_1_INIT () (_ BitVec 64))
(declare-fun %rbx_1_FINAL () (_ BitVec 64))
(declare-fun %rbx_1_INIT () (_ BitVec 64))
(declare-fun %rdx_1_FINAL () (_ BitVec 64))
(declare-fun %rdx_1_INIT () (_ BitVec 64))
(declare-fun %rcx_1_FINAL () (_ BitVec 64))
(declare-fun %rcx_1_INIT () (_ BitVec 64))
(declare-fun %rax_1_FINAL () (_ BitVec 64))
(declare-fun sigsegv_2_INIT () Bool)
(declare-fun sigsegv_1_INIT () Bool)
(declare-fun sigfpe_2_INIT () Bool)
(declare-fun sigfpe_1_INIT () Bool)
(declare-fun sigbus_2_INIT () Bool)
(declare-fun sigbus_1_INIT () Bool)
(declare-fun sigsegv_2_FINAL () Bool)
(declare-fun sigfpe_2_FINAL () Bool)
(declare-fun sigbus_2_FINAL () Bool)
(declare-fun %of_2_FINAL () Bool)
(declare-fun %sf_2_FINAL () Bool)
(declare-fun %zf_2_FINAL () Bool)
(declare-fun %af_2_FINAL () Bool)
(declare-fun TMP_BOOL_1 () Bool)
(declare-fun %pf_2_FINAL () Bool)
(declare-fun %cf_2_FINAL () Bool)
(declare-fun sigsegv_1_FINAL () Bool)
(declare-fun sigfpe_1_FINAL () Bool)
(declare-fun sigbus_1_FINAL () Bool)
(declare-fun %of_1_FINAL () Bool)
(declare-fun %of_1_INIT () Bool)
(declare-fun %sf_1_FINAL () Bool)
(declare-fun %sf_1_INIT () Bool)
(declare-fun %zf_1_FINAL () Bool)
(declare-fun %zf_1_INIT () Bool)
(declare-fun %af_1_FINAL () Bool)
(declare-fun %af_1_INIT () Bool)
(declare-fun %pf_1_FINAL () Bool)
(declare-fun %pf_1_INIT () Bool)
(declare-fun %cf_1_FINAL () Bool)
(declare-fun %cf_1_INIT () Bool)
(declare-fun CC () Bool)
(assert (= CC false))
(assert (= true (bvult %rdi_1_INIT (_ bv1000 64))))
(assert
(let ((?x31 ((_ extract 63 8) (concat (_ bv0 32) (bvxor ((_ extract 31 0) %rax_2_INIT) ((_ extract 31 0) %rax_2_INIT))))))
(let ((?x32 (concat ?x31 (ite (= (bvand %rdi_2_INIT %rdi_2_INIT) (_ bv0 64)) (_ bv1 8) (_ bv0 8)))))
(let (($x37 (and (and true (= (concat (_ bv0 32) (_ bv1 32)) ?x32)) (= sigbus_1_INIT sigbus_2_INIT))))
(let (($x39 (and (and $x37 (= sigfpe_1_INIT sigfpe_2_INIT)) (= sigsegv_1_INIT sigsegv_2_INIT))))
(let (($x78 (xor (= ((_ extract 0 0) ((_ extract 7 0) (bvand %rdi_2_INIT %rdi_2_INIT))) (_ bv1 1)) (= ((_ extract 1 1) ((_ extract 7 0) (bvand %rdi_2_INIT %rdi_2_INIT))) (_ bv1 1)))))
(let (($x79 (xor $x78 (= ((_ extract 2 2) ((_ extract 7 0) (bvand %rdi_2_INIT %rdi_2_INIT))) (_ bv1 1)))))
(let (($x80 (xor $x79 (= ((_ extract 3 3) ((_ extract 7 0) (bvand %rdi_2_INIT %rdi_2_INIT))) (_ bv1 1)))))
(let (($x81 (xor $x80 (= ((_ extract 4 4) ((_ extract 7 0) (bvand %rdi_2_INIT %rdi_2_INIT))) (_ bv1 1)))))
(let (($x82 (xor $x81 (= ((_ extract 5 5) ((_ extract 7 0) (bvand %rdi_2_INIT %rdi_2_INIT))) (_ bv1 1)))))
(let (($x83 (xor $x82 (= ((_ extract 6 6) ((_ extract 7 0) (bvand %rdi_2_INIT %rdi_2_INIT))) (_ bv1 1)))))
(let (($x84 (xor $x83 (= ((_ extract 7 7) ((_ extract 7 0) (bvand %rdi_2_INIT %rdi_2_INIT))) (_ bv1 1)))))
(let (($x304 (and (and true (= %rdi_1_INIT %rdi_2_INIT)) (= sigbus_1_INIT sigbus_2_INIT))))
(let (($x306 (and (and $x304 (= sigfpe_1_INIT sigfpe_2_INIT)) (= sigsegv_1_INIT sigsegv_2_INIT))))
(let (($x311 (and (and true CC) (and (and true $x306) (= TMP_ARR_64_8_2 TMP_ARR_64_8_3)))))
(let (($x313 (and (and $x311 (= (concat (_ bv0 32) (_ bv1 32)) %rax_1_FINAL)) (= %rcx_1_INIT %rcx_1_FINAL))))
(let (($x315 (and (and $x313 (= %rdx_1_INIT %rdx_1_FINAL)) (= %rbx_1_INIT %rbx_1_FINAL))))
(let (($x317 (and (and $x315 (= %rsp_1_INIT %rsp_1_FINAL)) (= %rbp_1_INIT %rbp_1_FINAL))))
(let (($x319 (and (and $x317 (= %rsi_1_INIT %rsi_1_FINAL)) (= %rdi_1_INIT %rdi_1_FINAL))))
(let (($x321 (and (and $x319 (= %r8_1_INIT %r8_1_FINAL)) (= %r9_1_INIT %r9_1_FINAL))))
(let (($x323 (and (and $x321 (= %r10_1_INIT %r10_1_FINAL)) (= %r11_1_INIT %r11_1_FINAL))))
(let (($x325 (and (and $x323 (= %r12_1_INIT %r12_1_FINAL)) (= %r13_1_INIT %r13_1_FINAL))))
(let (($x327 (and (and $x325 (= %r14_1_INIT %r14_1_FINAL)) (= %r15_1_INIT %r15_1_FINAL))))
(let (($x329 (and (and $x327 (= %ymm0_1_INIT %ymm0_1_FINAL)) (= %ymm1_1_INIT %ymm1_1_FINAL))))
(let (($x331 (and (and $x329 (= %ymm2_1_INIT %ymm2_1_FINAL)) (= %ymm3_1_INIT %ymm3_1_FINAL))))
(let (($x333 (and (and $x331 (= %ymm4_1_INIT %ymm4_1_FINAL)) (= %ymm5_1_INIT %ymm5_1_FINAL))))
(let (($x335 (and (and $x333 (= %ymm6_1_INIT %ymm6_1_FINAL)) (= %ymm7_1_INIT %ymm7_1_FINAL))))
(let (($x337 (and (and $x335 (= %ymm8_1_INIT %ymm8_1_FINAL)) (= %ymm9_1_INIT %ymm9_1_FINAL))))
(let (($x339 (and (and $x337 (= %ymm10_1_INIT %ymm10_1_FINAL)) (= %ymm11_1_INIT %ymm11_1_FINAL))))
(let (($x341 (and (and $x339 (= %ymm12_1_INIT %ymm12_1_FINAL)) (= %ymm13_1_INIT %ymm13_1_FINAL))))
(let (($x343 (and (and $x341 (= %ymm14_1_INIT %ymm14_1_FINAL)) (= %ymm15_1_INIT %ymm15_1_FINAL))))
(let (($x345 (and (and $x343 (= %cf_1_INIT %cf_1_FINAL)) (= %pf_1_INIT %pf_1_FINAL))))
(let (($x347 (and (and $x345 (= %af_1_INIT %af_1_FINAL)) (= %zf_1_INIT %zf_1_FINAL))))
(let (($x349 (and (and $x347 (= %sf_1_INIT %sf_1_FINAL)) (= %of_1_INIT %of_1_FINAL))))
(let (($x351 (and (and $x349 (= sigbus_1_INIT sigbus_1_FINAL)) (= sigfpe_1_INIT sigfpe_1_FINAL))))
(let (($x353 (and (and $x351 (= sigsegv_1_INIT sigsegv_1_FINAL)) (= ?x32 %rax_2_FINAL))))
(let (($x355 (and (and $x353 (= %rcx_2_INIT %rcx_2_FINAL)) (= %rdx_2_INIT %rdx_2_FINAL))))
(let (($x357 (and (and $x355 (= %rbx_2_INIT %rbx_2_FINAL)) (= %rsp_2_INIT %rsp_2_FINAL))))
(let (($x359 (and (and $x357 (= %rbp_2_INIT %rbp_2_FINAL)) (= %rsi_2_INIT %rsi_2_FINAL))))
(let (($x361 (and (and $x359 (= %rdi_2_INIT %rdi_2_FINAL)) (= %r8_2_INIT %r8_2_FINAL))))
(let (($x363 (and (and $x361 (= %r9_2_INIT %r9_2_FINAL)) (= %r10_2_INIT %r10_2_FINAL))))
(let (($x365 (and (and $x363 (= %r11_2_INIT %r11_2_FINAL)) (= %r12_2_INIT %r12_2_FINAL))))
(let (($x367 (and (and $x365 (= %r13_2_INIT %r13_2_FINAL)) (= %r14_2_INIT %r14_2_FINAL))))
(let (($x369 (and (and $x367 (= %r15_2_INIT %r15_2_FINAL)) (= %ymm0_2_INIT %ymm0_2_FINAL))))
(let (($x371 (and (and $x369 (= %ymm1_2_INIT %ymm1_2_FINAL)) (= %ymm2_2_INIT %ymm2_2_FINAL))))
(let (($x373 (and (and $x371 (= %ymm3_2_INIT %ymm3_2_FINAL)) (= %ymm4_2_INIT %ymm4_2_FINAL))))
(let (($x375 (and (and $x373 (= %ymm5_2_INIT %ymm5_2_FINAL)) (= %ymm6_2_INIT %ymm6_2_FINAL))))
(let (($x377 (and (and $x375 (= %ymm7_2_INIT %ymm7_2_FINAL)) (= %ymm8_2_INIT %ymm8_2_FINAL))))
(let (($x379 (and (and $x377 (= %ymm9_2_INIT %ymm9_2_FINAL)) (= %ymm10_2_INIT %ymm10_2_FINAL))))
(let (($x381 (and (and $x379 (= %ymm11_2_INIT %ymm11_2_FINAL)) (= %ymm12_2_INIT %ymm12_2_FINAL))))
(let (($x383 (and (and $x381 (= %ymm13_2_INIT %ymm13_2_FINAL)) (= %ymm14_2_INIT %ymm14_2_FINAL))))
(let (($x385 (and (and $x383 (= %ymm15_2_INIT %ymm15_2_FINAL)) (= false %cf_2_FINAL))))
(let (($x387 (and (and $x385 (= (not $x84) %pf_2_FINAL)) (= TMP_BOOL_1 %af_2_FINAL))))
(let (($x388 (and $x387 (= (= (bvand %rdi_2_INIT %rdi_2_INIT) (_ bv0 64)) %zf_2_FINAL))))
(let (($x389 (and $x388 (= (= ((_ extract 63 63) (bvand %rdi_2_INIT %rdi_2_INIT)) (_ bv1 1)) %sf_2_FINAL))))
(let (($x391 (and (and $x389 (= false %of_2_FINAL)) (= sigbus_2_INIT sigbus_2_FINAL))))
(let (($x393 (and (and $x391 (= sigfpe_2_INIT sigfpe_2_FINAL)) (= sigsegv_2_INIT sigsegv_2_FINAL))))
(let (($x394 (and $x393 (and (and true $x39) (= TMP_ARR_64_8_2 TMP_ARR_64_8_3)))))
(let (($x398 (and (and true (not CC)) (and (and true $x306) (= TMP_ARR_64_8_2 TMP_ARR_64_8_3)))))
(let (($x400 (and (and $x398 (= (concat (_ bv0 32) (_ bv1 32)) %rax_1_FINAL)) (= %rcx_1_INIT %rcx_1_FINAL))))
(let (($x402 (and (and $x400 (= %rdx_1_INIT %rdx_1_FINAL)) (= %rbx_1_INIT %rbx_1_FINAL))))
(let (($x404 (and (and $x402 (= %rsp_1_INIT %rsp_1_FINAL)) (= %rbp_1_INIT %rbp_1_FINAL))))
(let (($x406 (and (and $x404 (= %rsi_1_INIT %rsi_1_FINAL)) (= %rdi_1_INIT %rdi_1_FINAL))))
(let (($x408 (and (and $x406 (= %r8_1_INIT %r8_1_FINAL)) (= %r9_1_INIT %r9_1_FINAL))))
(let (($x410 (and (and $x408 (= %r10_1_INIT %r10_1_FINAL)) (= %r11_1_INIT %r11_1_FINAL))))
(let (($x412 (and (and $x410 (= %r12_1_INIT %r12_1_FINAL)) (= %r13_1_INIT %r13_1_FINAL))))
(let (($x414 (and (and $x412 (= %r14_1_INIT %r14_1_FINAL)) (= %r15_1_INIT %r15_1_FINAL))))
(let (($x416 (and (and $x414 (= %ymm0_1_INIT %ymm0_1_FINAL)) (= %ymm1_1_INIT %ymm1_1_FINAL))))
(let (($x418 (and (and $x416 (= %ymm2_1_INIT %ymm2_1_FINAL)) (= %ymm3_1_INIT %ymm3_1_FINAL))))
(let (($x420 (and (and $x418 (= %ymm4_1_INIT %ymm4_1_FINAL)) (= %ymm5_1_INIT %ymm5_1_FINAL))))
(let (($x422 (and (and $x420 (= %ymm6_1_INIT %ymm6_1_FINAL)) (= %ymm7_1_INIT %ymm7_1_FINAL))))
(let (($x424 (and (and $x422 (= %ymm8_1_INIT %ymm8_1_FINAL)) (= %ymm9_1_INIT %ymm9_1_FINAL))))
(let (($x426 (and (and $x424 (= %ymm10_1_INIT %ymm10_1_FINAL)) (= %ymm11_1_INIT %ymm11_1_FINAL))))
(let (($x428 (and (and $x426 (= %ymm12_1_INIT %ymm12_1_FINAL)) (= %ymm13_1_INIT %ymm13_1_FINAL))))
(let (($x430 (and (and $x428 (= %ymm14_1_INIT %ymm14_1_FINAL)) (= %ymm15_1_INIT %ymm15_1_FINAL))))
(let (($x432 (and (and $x430 (= %cf_1_INIT %cf_1_FINAL)) (= %pf_1_INIT %pf_1_FINAL))))
(let (($x434 (and (and $x432 (= %af_1_INIT %af_1_FINAL)) (= %zf_1_INIT %zf_1_FINAL))))
(let (($x436 (and (and $x434 (= %sf_1_INIT %sf_1_FINAL)) (= %of_1_INIT %of_1_FINAL))))
(let (($x438 (and (and $x436 (= sigbus_1_INIT sigbus_1_FINAL)) (= sigfpe_1_INIT sigfpe_1_FINAL))))
(let (($x440 (and (and $x438 (= sigsegv_1_INIT sigsegv_1_FINAL)) (= ?x32 %rax_2_FINAL))))
(let (($x442 (and (and $x440 (= %rcx_2_INIT %rcx_2_FINAL)) (= %rdx_2_INIT %rdx_2_FINAL))))
(let (($x444 (and (and $x442 (= %rbx_2_INIT %rbx_2_FINAL)) (= %rsp_2_INIT %rsp_2_FINAL))))
(let (($x446 (and (and $x444 (= %rbp_2_INIT %rbp_2_FINAL)) (= %rsi_2_INIT %rsi_2_FINAL))))
(let (($x448 (and (and $x446 (= %rdi_2_INIT %rdi_2_FINAL)) (= %r8_2_INIT %r8_2_FINAL))))
(let (($x450 (and (and $x448 (= %r9_2_INIT %r9_2_FINAL)) (= %r10_2_INIT %r10_2_FINAL))))
(let (($x452 (and (and $x450 (= %r11_2_INIT %r11_2_FINAL)) (= %r12_2_INIT %r12_2_FINAL))))
(let (($x454 (and (and $x452 (= %r13_2_INIT %r13_2_FINAL)) (= %r14_2_INIT %r14_2_FINAL))))
(let (($x456 (and (and $x454 (= %r15_2_INIT %r15_2_FINAL)) (= %ymm0_2_INIT %ymm0_2_FINAL))))
(let (($x458 (and (and $x456 (= %ymm1_2_INIT %ymm1_2_FINAL)) (= %ymm2_2_INIT %ymm2_2_FINAL))))
(let (($x460 (and (and $x458 (= %ymm3_2_INIT %ymm3_2_FINAL)) (= %ymm4_2_INIT %ymm4_2_FINAL))))
(let (($x462 (and (and $x460 (= %ymm5_2_INIT %ymm5_2_FINAL)) (= %ymm6_2_INIT %ymm6_2_FINAL))))
(let (($x464 (and (and $x462 (= %ymm7_2_INIT %ymm7_2_FINAL)) (= %ymm8_2_INIT %ymm8_2_FINAL))))
(let (($x466 (and (and $x464 (= %ymm9_2_INIT %ymm9_2_FINAL)) (= %ymm10_2_INIT %ymm10_2_FINAL))))
(let (($x468 (and (and $x466 (= %ymm11_2_INIT %ymm11_2_FINAL)) (= %ymm12_2_INIT %ymm12_2_FINAL))))
(let (($x470 (and (and $x468 (= %ymm13_2_INIT %ymm13_2_FINAL)) (= %ymm14_2_INIT %ymm14_2_FINAL))))
(let (($x472 (and (and $x470 (= %ymm15_2_INIT %ymm15_2_FINAL)) (= false %cf_2_FINAL))))
(let (($x474 (and (and $x472 (= (not $x84) %pf_2_FINAL)) (= TMP_BOOL_1 %af_2_FINAL))))
(let (($x475 (and $x474 (= (= (bvand %rdi_2_INIT %rdi_2_INIT) (_ bv0 64)) %zf_2_FINAL))))
(let (($x476 (and $x475 (= (= ((_ extract 63 63) (bvand %rdi_2_INIT %rdi_2_INIT)) (_ bv1 1)) %sf_2_FINAL))))
(let (($x478 (and (and $x476 (= false %of_2_FINAL)) (= sigbus_2_INIT sigbus_2_FINAL))))
(let (($x480 (and (and $x478 (= sigfpe_2_INIT sigfpe_2_FINAL)) (= sigsegv_2_INIT sigsegv_2_FINAL))))
(let (($x481 (and $x480 (not (and (and true $x39) (= TMP_ARR_64_8_2 TMP_ARR_64_8_3))))))
(or $x481 $x394)))))))))))))))))))))))))))))))))))))))))))))))))))))))))))))))))))))))))))))))))))))))))))))))))))))))
(check-sat)
